12° run output:
{
    "Function": "euclidB500.tsp",
    "Problem dimension": [
        339,
        277,
        14,
        420,
        356,
        77,
        143,
        190,
        265,
        185,
        0,
        267,
        451,
        35,
        340,
        48,
        23,
        100,
        73,
        281,
        284,
        270,
        223,
        261,
        287,
        400,
        259,
        199,
        194,
        160,
        46,
        297,
        312,
        47,
        20,
        283,
        430,
        311,
        219,
        315,
        257,
        272,
        215,
        74,
        349,
        358,
        359,
        371,
        237,
        15,
        142,
        227,
        114,
        147,
        32,
        264,
        478,
        350,
        21,
        278,
        394,
        4,
        402,
        130,
        81,
        59,
        69,
        119,
        249,
        324,
        290,
        40,
        305,
        125,
        327,
        475,
        392,
        33,
        483,
        198,
        134,
        320,
        75,
        344,
        266,
        85,
        489,
        22,
        319,
        13,
        180,
        90,
        106,
        12,
        418,
        471,
        183,
        144,
        229,
        379,
        118,
        450,
        154,
        177,
        89,
        52,
        434,
        139,
        459,
        262,
        405,
        66,
        365,
        26,
        61,
        370,
        426,
        279,
        28,
        444,
        482,
        345,
        92,
        123,
        447,
        91,
        448,
        384,
        260,
        449,
        300,
        205,
        17,
        225,
        8,
        37,
        317,
        422,
        288,
        293,
        326,
        127,
        164,
        391,
        186,
        271,
        38,
        424,
        11,
        473,
        232,
        490,
        496,
        55,
        415,
        41,
        202,
        244,
        335,
        121,
        97,
        240,
        446,
        466,
        494,
        285,
        481,
        27,
        133,
        374,
        64,
        211,
        138,
        1,
        174,
        2,
        10,
        87,
        280,
        36,
        39,
        491,
        222,
        372,
        167,
        452,
        357,
        117,
        193,
        210,
        171,
        461,
        455,
        239,
        469,
        352,
        386,
        203,
        226,
        230,
        497,
        407,
        342,
        128,
        58,
        474,
        161,
        453,
        221,
        235,
        460,
        122,
        484,
        136,
        241,
        79,
        157,
        332,
        369,
        245,
        242,
        470,
        95,
        248,
        176,
        103,
        381,
        68,
        18,
        170,
        404,
        165,
        417,
        192,
        462,
        169,
        406,
        82,
        268,
        403,
        184,
        432,
        275,
        408,
        467,
        296,
        291,
        366,
        310,
        156,
        367,
        421,
        472,
        16,
        313,
        273,
        495,
        336,
        45,
        217,
        423,
        146,
        412,
        274,
        207,
        465,
        429,
        431,
        145,
        113,
        498,
        173,
        360,
        208,
        31,
        126,
        445,
        153,
        479,
        238,
        389,
        439,
        175,
        94,
        492,
        246,
        289,
        443,
        162,
        253,
        355,
        258,
        427,
        151,
        159,
        419,
        250,
        149,
        487,
        348,
        135,
        440,
        107,
        86,
        363,
        385,
        328,
        382,
        214,
        166,
        454,
        63,
        218,
        251,
        104,
        441,
        102,
        131,
        318,
        115,
        436,
        76,
        178,
        7,
        321,
        83,
        353,
        390,
        411,
        93,
        376,
        414,
        220,
        29,
        292,
        480,
        43,
        62,
        299,
        197,
        168,
        435,
        84,
        247,
        263,
        98,
        9,
        276,
        224,
        30,
        206,
        488,
        316,
        362,
        212,
        148,
        163,
        477,
        191,
        380,
        304,
        398,
        325,
        112,
        378,
        416,
        80,
        255,
        181,
        433,
        485,
        361,
        282,
        233,
        78,
        383,
        200,
        124,
        60,
        57,
        401,
        72,
        158,
        308,
        375,
        129,
        254,
        493,
        331,
        306,
        294,
        486,
        425,
        393,
        54,
        71,
        499,
        351,
        399,
        458,
        298,
        256,
        333,
        51,
        347,
        172,
        231,
        195,
        111,
        388,
        295,
        236,
        413,
        464,
        204,
        307,
        243,
        109,
        323,
        65,
        25,
        341,
        354,
        34,
        269,
        364,
        337,
        152,
        6,
        137,
        96,
        140,
        201,
        141,
        302,
        343,
        70,
        132,
        396,
        209,
        99,
        309,
        67,
        56,
        346,
        456,
        88,
        368,
        301,
        329,
        216,
        286,
        438,
        428,
        196,
        213,
        468,
        187,
        409,
        120,
        476,
        3,
        387,
        105,
        49,
        179,
        395,
        437,
        373,
        397,
        110,
        182,
        5,
        377,
        234,
        24,
        19,
        322,
        116,
        338,
        442,
        334,
        108,
        50,
        410,
        314,
        42,
        330,
        252,
        303,
        189,
        101,
        150,
        155,
        228,
        44,
        463,
        53,
        188,
        457
    ],
    "Global Optimum": 0,
    "Algorithm": "Genetic algorithm",
    "Parameters": {
        "population": 30,
        "offspring": 30,
        "mutation probability": 0.002,
        "crossover probability": 0.9
    },
    "Fitness": 652135,
    "Solution": [
        339,
        277,
        14,
        420,
        356,
        77,
        143,
        190,
        265,
        185,
        0,
        267,
        451,
        35,
        340,
        48,
        23,
        100,
        73,
        281,
        284,
        270,
        223,
        261,
        287,
        400,
        259,
        199,
        194,
        160,
        46,
        297,
        312,
        47,
        20,
        283,
        430,
        311,
        219,
        315,
        257,
        272,
        215,
        74,
        349,
        358,
        359,
        371,
        237,
        15,
        142,
        227,
        114,
        147,
        32,
        264,
        478,
        350,
        21,
        278,
        394,
        4,
        402,
        130,
        81,
        59,
        69,
        119,
        249,
        324,
        290,
        40,
        305,
        125,
        327,
        475,
        392,
        33,
        483,
        198,
        134,
        320,
        75,
        344,
        266,
        85,
        489,
        22,
        319,
        13,
        180,
        90,
        106,
        12,
        418,
        471,
        183,
        144,
        229,
        379,
        118,
        450,
        154,
        177,
        89,
        52,
        434,
        139,
        459,
        262,
        405,
        66,
        365,
        26,
        61,
        370,
        426,
        279,
        28,
        444,
        482,
        345,
        92,
        123,
        447,
        91,
        448,
        384,
        260,
        449,
        300,
        205,
        17,
        225,
        8,
        37,
        317,
        422,
        288,
        293,
        326,
        127,
        164,
        391,
        186,
        271,
        38,
        424,
        11,
        473,
        232,
        490,
        496,
        55,
        415,
        41,
        202,
        244,
        335,
        121,
        97,
        240,
        446,
        466,
        494,
        285,
        481,
        27,
        133,
        374,
        64,
        211,
        138,
        1,
        174,
        2,
        10,
        87,
        280,
        36,
        39,
        491,
        222,
        372,
        167,
        452,
        357,
        117,
        193,
        210,
        171,
        461,
        455,
        239,
        469,
        352,
        386,
        203,
        226,
        230,
        497,
        407,
        342,
        128,
        58,
        474,
        161,
        453,
        221,
        235,
        460,
        122,
        484,
        136,
        241,
        79,
        157,
        332,
        369,
        245,
        242,
        470,
        95,
        248,
        176,
        103,
        381,
        68,
        18,
        170,
        404,
        165,
        417,
        192,
        462,
        169,
        406,
        82,
        268,
        403,
        184,
        432,
        275,
        408,
        467,
        296,
        291,
        366,
        310,
        156,
        367,
        421,
        472,
        16,
        313,
        273,
        495,
        336,
        45,
        217,
        423,
        146,
        412,
        274,
        207,
        465,
        429,
        431,
        145,
        113,
        498,
        173,
        360,
        208,
        31,
        126,
        445,
        153,
        479,
        238,
        389,
        439,
        175,
        94,
        492,
        246,
        289,
        443,
        162,
        253,
        355,
        258,
        427,
        151,
        159,
        419,
        250,
        149,
        487,
        348,
        135,
        440,
        107,
        86,
        363,
        385,
        328,
        382,
        214,
        166,
        454,
        63,
        218,
        251,
        104,
        441,
        102,
        131,
        318,
        115,
        436,
        76,
        178,
        7,
        321,
        83,
        353,
        390,
        411,
        93,
        376,
        414,
        220,
        29,
        292,
        480,
        43,
        62,
        299,
        197,
        168,
        435,
        84,
        247,
        263,
        98,
        9,
        276,
        224,
        30,
        206,
        488,
        316,
        362,
        212,
        148,
        163,
        477,
        191,
        380,
        304,
        398,
        325,
        112,
        378,
        416,
        80,
        255,
        181,
        433,
        485,
        361,
        282,
        233,
        78,
        383,
        200,
        124,
        60,
        57,
        401,
        72,
        158,
        308,
        375,
        129,
        254,
        493,
        331,
        306,
        294,
        486,
        425,
        393,
        54,
        71,
        499,
        351,
        399,
        458,
        298,
        256,
        333,
        51,
        347,
        172,
        231,
        195,
        111,
        388,
        295,
        236,
        413,
        464,
        204,
        307,
        243,
        109,
        323,
        65,
        25,
        341,
        354,
        34,
        269,
        364,
        337,
        152,
        6,
        137,
        96,
        140,
        201,
        141,
        302,
        343,
        70,
        132,
        396,
        209,
        99,
        309,
        67,
        56,
        346,
        456,
        88,
        368,
        301,
        329,
        216,
        286,
        438,
        428,
        196,
        213,
        468,
        187,
        409,
        120,
        476,
        3,
        387,
        105,
        49,
        179,
        395,
        437,
        373,
        397,
        110,
        182,
        5,
        377,
        234,
        24,
        19,
        322,
        116,
        338,
        442,
        334,
        108,
        50,
        410,
        314,
        42,
        330,
        252,
        303,
        189,
        101,
        150,
        155,
        228,
        44,
        463,
        53,
        188,
        457
    ],
    "Nb of functions evaluations": 50010,
    "Computational time in seconds": 364.7287619113922,
    "Stopping criterion in evaluations": 50000
}